     Program PWSCF v.7.3.1 starts on 28Mar2025 at  1:11:33

     Waiting for input...
     Reading input from standard input

     Current dimensions of program PWSCF are:
     Max number of different atomic species (ntypx) = 10
     Max number of k-points (npk) =  40000
     Max angular momentum in pseudopotentials (lmaxx) =  4

     gamma-point specific algorithms are used

     Subspace diagonalization in iterative solution of the eigenvalue problem:
     a serial algorithm will be used

     Using Slab Decomposition

     bravais-lattice index     =            1
     lattice parameter (alat)  =      28.3459  a.u.
     unit-cell volume          =   22775.6289 (a.u.)^3
     number of atoms/cell      =           20
     number of atomic types    =            2
     number of electrons       =        80.00
     number of Kohn-Sham states=           40
     kinetic-energy cutoff     =      40.0000  Ry
     charge density cutoff     =     160.0000  Ry
     scf convergence threshold =      1.0E-06
     mixing beta               =       0.7000
     number of iterations used =            8  plain     mixing
     Exchange-correlation=  SLA  PW   PBX  PBC
                           (   1   4   3   4   0   0   0)

     celldm(1)=  28.345892  celldm(2)=   0.000000  celldm(3)=   0.000000
     celldm(4)=   0.000000  celldm(5)=   0.000000  celldm(6)=   0.000000

     crystal axes: (cart. coord. in units of alat)
               a(1) = (   1.000000   0.000000   0.000000 )
               a(2) = (   0.000000   1.000000   0.000000 )
               a(3) = (   0.000000   0.000000   1.000000 )

     reciprocal axes: (cart. coord. in units 2 pi/alat)
               b(1) = (  1.000000  0.000000  0.000000 )
               b(2) = (  0.000000  1.000000  0.000000 )
               b(3) = (  0.000000  0.000000  1.000000 )

     PseudoPot. # 1 for C  read from file:
     /u/home/n/nbriana/qe-7.3.1/XSpectra/test/pseudo/Ch_PBE_TM_2pj.UPF
     MD5 check sum: ef0cb3dee31bd9e4ba2a832a2c716264
     Pseudo is Norm-conserving, Zval =  5.0
     Generated by new atomic code, or converted to UPF format
     Using radial grid of 1073 points,  1 beta functions with:
                l(1) =   0

     PseudoPot. # 2 for C  read from file:
     /u/home/n/nbriana/qe-7.3.1/XSpectra/test/pseudo/C_PBE_TM_2pj.UPF
     MD5 check sum: e8858615eb0a4b79f05373b4879fdf67
     Pseudo is Norm-conserving, Zval =  4.0
     Generated by new atomic code, or converted to UPF format
     Using radial grid of 1073 points,  1 beta functions with:
                l(1) =   0

     atomic species   valence    mass     pseudopotential
     C_h               5.00    12.01100     C ( 1.00)
     C                 4.00    12.01100     C ( 1.00)

     No symmetry found

   Cartesian axes

     site n.     atom                  positions (alat units)
         1        C      tau(   1) = (   0.0156909   0.0701746   0.0479686  )
         2        C      tau(   2) = (   0.0242461   0.1503129   0.0798924  )
         3        C      tau(   3) = (   0.0459560   0.2197156   0.1212671  )
         4        C      tau(   4) = (   0.0379378  -0.0117593   0.0543789  )
         5        C      tau(   5) = (   0.0518574   0.1619205   0.3776840  )
         6        C      tau(   6) = (   0.1320754   0.3144944   0.2303134  )
         7        C      tau(   7) = (   0.1202822   0.2528212   0.1606116  )
         8        C      tau(   8) = (   0.1292617   0.1257274   0.3760598  )
         9        C      tau(   9) = (   0.2139510   0.0752980   0.1641980  )
        10        C      tau(  10) = (   0.2106548   0.2194783   0.1322070  )
        11        C      tau(  11) = (   0.2301142   0.1315358   0.0903849  )
        12        C      tau(  12) = (   0.2198798   0.3324249   0.2437391  )
        13        C      tau(  13) = (   0.2125692   0.0648491   0.2452808  )
        14        C      tau(  14) = (   0.2041761   0.1095050   0.3264509  )
        15        C      tau(  15) = (   0.2770182   0.1089055   0.0179022  )
        16        C      tau(  16) = (   0.2696718   0.3275966   0.1470264  )
        17        C      tau(  17) = (   0.2836810   0.2480794   0.1891343  )
        18        C_h    tau(  18) = (   0.2611248   0.2575947   0.2859946  )
        19        C      tau(  19) = (   0.2491721   0.1879666   0.3381037  )
        20        C      tau(  20) = (   0.3530823   0.0873927  -0.0127489  )

     number of k points=     1
                       cart. coord. in units 2pi/alat
        k(    1) = (   0.0000000   0.0000000   0.0000000), wk =   2.0000000

     Initial potential from superposition of free atoms

     starting charge      70.0000, renormalised to      80.0000

     negative rho (up, down):  6.314E-03 0.000E+00
     Starting wfcs are  160 randomized atomic wfcs

     Self-consistent Calculation

     iteration #  1     ecut=    40.00 Ry     beta= 0.70
     Davidson diagonalization with overlap
     ethr =  1.00E-02,  avg # of iterations =  2.0

     negative rho (up, down):  1.394E-03 0.000E+00

     total energy              =    -223.48938834 Ry
     estimated scf accuracy    <      12.38948219 Ry

[...]

     negative rho (up, down):  7.228E-07 0.000E+00

[...]

     iteration # 16     ecut=    40.00 Ry     beta= 0.70
     Davidson diagonalization with overlap
     c_bands:  1 eigenvalues not converged
     ethr =  1.19E-05,  avg # of iterations = 20.0

[...]

     iteration # 39     ecut=    40.00 Ry     beta= 0.70
     Davidson diagonalization with overlap
     c_bands:  1 eigenvalues not converged
     ethr =  7.46E-07,  avg # of iterations = 20.0

[...]

     total energy              =    -232.53385312 Ry
     estimated scf accuracy    <       0.00004511 Ry

     iteration # 47     ecut=    40.00 Ry     beta= 0.70
     Davidson diagonalization with overlap
     ethr =  4.07E-08,  avg # of iterations =  9.0

     End of self-consistent calculation

          k = 0.0000 0.0000 0.0000 ( 48761 PWs)   bands (ev):

   -29.0027 -25.6995 -24.8827 -23.4948 -23.2282 -22.2733 -22.0195 -21.5490
   -20.6785 -20.3574 -19.4576 -18.9588 -18.1185 -17.3600 -17.2988 -16.7829
   -16.1959 -15.9605 -15.6007 -15.1201 -14.4076 -13.6038 -12.5985 -12.0010
   -11.9068 -11.3783 -10.8128 -10.5731 -10.0725  -9.9589  -9.6482  -9.4762
    -9.1151  -8.7064  -8.5517  -8.2861  -8.2337  -8.0944  -7.8606  -7.8503

     highest occupied level (ev):    -7.8503

!    total energy              =    -232.53385598 Ry
     estimated scf accuracy    <       0.00000062 Ry

     The total energy is the sum of the following terms:
     one-electron contribution =   -1250.86116240 Ry
     hartree contribution      =     625.31209713 Ry
     xc contribution           =     -68.49701735 Ry
     ewald contribution        =     461.51222664 Ry

     convergence has been achieved in  47 iterations

     Writing all to output data dir /u/home/n/nbriana/qe-7.3.1/XSpectra/test/results/tmp/aC.save/ :
     XML data file, charge density, pseudopotentials, collected wavefunctions

     General routines

     Parallel routines

   This run was terminated on:   1:15:35  28Mar2025

   JOB DONE.