     Program PWSCF v.7.3.1 starts on 28Mar2025 at 12:20:19

     Waiting for input...
     Reading input from standard input
Warning: card C 0.363406986 0.485110015 0.016659975 ignored
Warning: card C 0.384535998 0.256127 0.82299 ignored
Warning: card C 0.206628993 0.259164989 0.841922998 ignored
Warning: card C 0.0010577 0.502044022 0.820565999 ignored
Warning: card C 0.114731997 0.549320996 0.239418 ignored
Warning: card C 0.379370004 0.69809401 0.231281996 ignored
Warning: card C 0.061510801 0.644204021 0.115180001 ignored
Warning: card C 0.117117003 0.644250989 0.209259003 ignored
Warning: card C 0.031163899 0.721723974 0.061487101 ignored
Warning: card C 0.034027599 0.545520008 0.092509598 ignored
Warning: card C 0.375115007 0.745904028 0.143150002 ignored
Warning: card C 0.306937009 0.748938024 0.065230899 ignored
Warning: card C 0.382479995 0.565783978 0.463319987 ignored
Warning: card C 0.327181011 0.659067988 0.306991011 ignored
Warning: card C 0.149268001 0.710047007 0.280229986 ignored
Warning: card C 0.38885501 0.596018016 0.367018014 ignored
Warning: card C 0.473363012 0.600713015 0.317158014 ignored
Warning: card C 0.239769995 0.708405018 0.327311993 ignored
Warning: card C 0.470393002 0.69126302 0.271380007 ignored
Warning: card C 0.173464999 0.491017014 0.302908987 ignored
Warning: card C 0.093369901 0.61017698 0.605645001 ignored
Warning: card C 0.349604011 0.571766973 0.648326993 ignored
Warning: card C 0.366609007 0.558117986 0.552707016 ignored
Warning: card C 0.278577 0.678842008 0.744659007 ignored
Warning: card C 0.173663005 0.560057998 0.644738972 ignored
Warning: card C 0.258978009 0.612369001 0.676711977 ignored
Warning: card C 0.020907801 0.669104993 0.612263978 ignored
Warning: card C 0.396710008 0.566568017 0.737796009 ignored
Warning: card C 0.0269337 0.614115 0.526638985 ignored
Warning: card C 0.0633711 0.638559997 0.894155025 ignored
Warning: card C 0.353814006 0.640200973 0.913389027 ignored
Warning: card C 0.110523999 0.705241024 0.862972021 ignored
Warning: card C 0.37105 0.558885992 0.965110004 ignored
Warning: card C 0.352789998 0.627351999 0.804955006 ignored
Warning: card C 0.311446011 0.716197014 0.965288997 ignored
Warning: card C 0.020274401 0.545656979 0.904891014 ignored
Warning: card C 0.210720003 0.904595017 0.088745698 ignored
Warning: card C 0.294818014 0.956297994 0.098254502 ignored
Warning: card C 0.463930994 0.796553016 0.113371 ignored
Warning: card C 0.044771802 0.943324983 0.178103 ignored
Warning: card C 0.142361999 0.938520014 0.167226002 ignored
Warning: card C 0.235606 0.822237015 0.0399855 ignored
Warning: card C 0.194251999 0.973297 0.239515007 ignored
Warning: card C 0.367482007 0.005519986 0.108061999 ignored
Warning: card C 0.494578987 0.820958972 0.0250994 ignored
Warning: card C 0.0551177 0.864929974 0.345306993 ignored
Warning: card C 0.126320004 0.796844006 0.335575014 ignored
Warning: card C 0.268628001 0.857960999 0.435178012 ignored
Warning: card C 0.222505003 0.79320401 0.376632005 ignored
Warning: card C 0.351648003 0.923435986 0.419672012 ignored
Warning: card C 0.045097802 0.920322001 0.442894995 ignored
Warning: card C 0.484064996 0.791926026 0.285243988 ignored
Warning: card C 0.433429986 0.901820004 0.488976985 ignored
Warning: card C 0.00205976 0.913910985 0.259974003 ignored
Warning: card C 0.250528008 0.990361989 0.303270012 ignored
Warning: card C 0.215964004 0.914312005 0.503369987 ignored
Warning: card C 0.294669002 0.94818902 0.565223992 ignored
Warning: card C 0.374644011 0.883478999 0.582211971 ignored
Warning: card C 0.395446002 0.86125797 0.676149011 ignored
Warning: card C 0.489690006 0.861786008 0.710505009 ignored
[...]
Warning: card C 0.873598993 0.747781992 0.63874501 ignored
Warning: card C 0.795616984 0.939864993 0.830334008 ignored
Warning: card C 0.771358013 0.843550026 0.816676021 ignored
Warning: card C 0.952055991 0.869961023 0.983874977 ignored
Warning: card C 0.596540987 0.857729971 0.873364985 ignored
Warning: card C 0.888186991 0.968383014 0.839559972 ignored
Warning: card C 0.970745981 0.907371998 0.88814503 ignored
Warning: card C 0.560777009 0.84959197 0.777079999 ignored
Warning: card C 0.695743978 0.804426014 0.858509004 ignored
Warning: card C 0.627292991 0.955744028 0.899850011 ignored
Warning: card C 0.554256976 0.799876988 0.954060018 ignored
Warning: card C 0.002570033 0.837651014 0.817942977 ignored
Warning: card C 0.648943007 0.989051998 0.995805025 ignored
Warning: card C 0.704855025 0.995242 0.843277991 ignored
Warning: card C 0.997160017 0.78450799 0.747902989 ignored

     Current dimensions of program PWSCF are:
     Max number of different atomic species (ntypx) = 10
     Max number of k-points (npk) =  40000
     Max angular momentum in pseudopotentials (lmaxx) =  4

     gamma-point specific algorithms are used

     Subspace diagonalization in iterative solution of the eigenvalue problem:
     a serial algorithm will be used

     Using Slab Decomposition

     bravais-lattice index     =            1
     lattice parameter (alat)  =      26.8830  a.u.
     unit-cell volume          =   19428.2717 (a.u.)^3
     number of atoms/cell      =           50
     number of atomic types    =            2
     number of electrons       =       200.00
     number of Kohn-Sham states=          100
     kinetic-energy cutoff     =      20.0000  Ry
     charge density cutoff     =      80.0000  Ry
     scf convergence threshold =      1.0E-06
     mixing beta               =       0.7000
     number of iterations used =            8  plain     mixing
     Exchange-correlation=  SLA  PW   PBX  PBC
                           (   1   4   3   4   0   0   0)

     celldm(1)=  26.883020  celldm(2)=   0.000000  celldm(3)=   0.000000
     celldm(4)=   0.000000  celldm(5)=   0.000000  celldm(6)=   0.000000

     crystal axes: (cart. coord. in units of alat)
               a(1) = (   1.000000   0.000000   0.000000 )
               a(2) = (   0.000000   1.000000   0.000000 )
               a(3) = (   0.000000   0.000000   1.000000 )

     reciprocal axes: (cart. coord. in units 2 pi/alat)
               b(1) = (  1.000000  0.000000  0.000000 )
               b(2) = (  0.000000  1.000000  0.000000 )
               b(3) = (  0.000000  0.000000  1.000000 )

     PseudoPot. # 1 for C  read from file:
     /u/home/n/nbriana/qe-7.3.1/XSpectra/test/pseudo/C_PBE_TM_2pj.UPF
     MD5 check sum: e8858615eb0a4b79f05373b4879fdf67
     Pseudo is Norm-conserving, Zval =  4.0
     Generated by new atomic code, or converted to UPF format
     Using radial grid of 1073 points,  1 beta functions with:
                l(1) =   0

     PseudoPot. # 2 for C  read from file:
     /u/home/n/nbriana/qe-7.3.1/XSpectra/test/pseudo/Ch_PBE_TM_2pj.UPF
     MD5 check sum: ef0cb3dee31bd9e4ba2a832a2c716264
     Pseudo is Norm-conserving, Zval =  5.0
     Generated by new atomic code, or converted to UPF format
     Using radial grid of 1073 points,  1 beta functions with:
                l(1) =   0

     atomic species   valence    mass     pseudopotential
     C                 4.00    12.01100     C ( 1.00)
     C_h               5.00    12.01100     C ( 1.00)

     No symmetry found

   Cartesian axes

     site n.     atom                  positions (alat units)
         1        C_h    tau(   1) = (   0.8671760   0.3615880   0.0210090  )
         2        C      tau(   2) = (   0.1284970   0.1227580   0.0370101  )
         3        C      tau(   3) = (   0.4508770   0.0371453   0.1209620  )
         4        C      tau(   4) = (   0.0975555   0.1747870   0.1118520  )
         5        C      tau(   5) = (   0.0017674   0.1574700   0.1389100  )
         6        C      tau(   6) = (   0.3874260   0.0854215   0.3324200  )
         7        C      tau(   7) = (   0.3689710   0.1839710   0.3111710  )
         8        C      tau(   8) = (   0.4939480   0.0904083   0.3384770  )
         9        C      tau(   9) = (   0.3307420   0.0038386   0.3581570  )
        10        C      tau(  10) = (   0.4735560   0.0020897   0.4829910  )
        11        C      tau(  11) = (   0.4487030   0.2315380   0.2766460  )
        12        C      tau(  12) = (   0.4423150   0.1655240   0.5499850  )
        13        C      tau(  13) = (   0.3262140   0.0430914   0.5735130  )
        14        C      tau(  14) = (   0.4195000   0.0742134   0.5357820  )
        15        C      tau(  15) = (   0.2644930   0.2044660   0.6013540  )
        16        C      tau(  16) = (   0.2604350   0.1055660   0.6160720  )
        17        C      tau(  17) = (   0.1705700   0.0704748   0.6151020  )
        18        C      tau(  18) = (   0.0994030   0.0211593   0.5761100  )
        19        C      tau(  19) = (   0.0197571   0.1705210   0.7319390  )
        20        C      tau(  20) = (   0.0037840   0.0599144   0.5902450  )
        21        C      tau(  21) = (   0.4591360   0.2491690   0.5859160  )
        22        C      tau(  22) = (   0.0214509   0.2457430   0.6632460  )
        23        C      tau(  23) = (   0.1011330   0.0809704   0.9632910  )
        24        C      tau(  24) = (   0.3844250   0.1717230   0.8714540  )
        25        C      tau(  25) = (   0.0375692   0.0804980   0.8848970  )
        26        C      tau(  26) = (   0.3719710   0.0863349   0.8899420  )
        27        C      tau(  27) = (   0.1314830   0.2144900   0.8461840  )
        28        C      tau(  28) = (   0.0547407   0.1542190   0.8224970  )
        29        C      tau(  29) = (   0.3499710   0.9968596   0.8623990  )
        30        C      tau(  30) = (   0.2179220   0.3083220   0.1659300  )
        31        C      tau(  31) = (   0.0516516   0.4979990   0.1769770  )
        32        C      tau(  32) = (   0.3195510   0.4132900   0.0581899  )
        33        C      tau(  33) = (   0.0419628   0.3094710   0.1888950  )
        34        C      tau(  34) = (   0.0161110   0.4064160   0.2184130  )
        35        C      tau(  35) = (   0.2744690   0.3546640   0.1079620  )
        36        C      tau(  36) = (   0.1230070   0.2669800   0.1535640  )
        37        C      tau(  37) = (   0.2859270   0.2462390   0.3335680  )
        38        C      tau(  38) = (   0.2461940   0.3248830   0.2730550  )
        39        C      tau(  39) = (   0.2144040   0.4120960   0.2949760  )
        40        C      tau(  40) = (   0.2539570   0.2386110   0.4204440  )
        41        C      tau(  41) = (   0.1592450   0.4627030   0.6448850  )
        42        C      tau(  42) = (   0.2357910   0.3002150   0.5978550  )
        43        C      tau(  43) = (   0.4591940   0.2781630   0.6680620  )
        44        C      tau(  44) = (   0.2331850   0.3872940   0.6524450  )
        45        C      tau(  45) = (   0.0370320   0.3363680   0.6474110  )
        46        C      tau(  46) = (   0.0685225   0.4244060   0.6675590  )
        47        C      tau(  47) = (   0.2739460   0.3613790   0.7321300  )
        48        C      tau(  48) = (   0.2383640   0.2535970   0.5102720  )
        49        C      tau(  49) = (   0.2895320   0.2996500   0.8038430  )
        50        C      tau(  50) = (   0.4632640   0.2879750   0.7664300  )

     number of k points=     1
                       cart. coord. in units 2pi/alat
        k(    1) = (   0.0000000   0.0000000   0.0000000), wk =   2.0000000

     Initial potential from superposition of free atoms

     starting charge     174.9999, renormalised to     200.0000

     negative rho (up, down):  1.922E-01 0.000E+00
     Starting wfcs are  400 randomized atomic wfcs

     Self-consistent Calculation

     iteration #  1     ecut=    20.00 Ry     beta= 0.70
     Davidson diagonalization with overlap
     ethr =  1.00E-02,  avg # of iterations =  2.0

     negative rho (up, down):  2.736E-02 0.000E+00

     total energy              =    -547.05106882 Ry
     estimated scf accuracy    <      17.86071296 Ry

[...]

     negative rho (up, down):  2.605E-02 0.000E+00

     total energy              =    -556.15732018 Ry
     estimated scf accuracy    <       6.53397230 Ry

     iteration #100     ecut=    20.00 Ry     beta= 0.70
     Davidson diagonalization with overlap
     ethr =  1.08E-03,  avg # of iterations =  6.0

     End of self-consistent calculation

          k = 0.0000 0.0000 0.0000 ( 14712 PWs)   bands (ev):

   -25.7031 -23.1529 -21.8990 -21.4919 -21.3545 -20.9903 -20.7926 -20.4685
   -20.3729 -19.7668 -19.7371 -19.5839 -19.3470 -19.0087 -18.4570 -18.3166
   -17.9427 -17.5214 -17.3394 -16.8656 -16.5795 -16.3453 -16.1280 -15.9611
   -15.8368 -15.4724 -15.4656 -15.4251 -15.3305 -15.2380 -14.9655 -14.7458
   -14.5063 -14.4006 -14.1615 -14.1057 -13.5902 -13.1964 -13.1064 -12.9394
   -12.6169 -12.3786 -12.2910 -12.0441 -11.7497 -11.6319 -11.3545 -11.0107
   -10.6376 -10.4007 -10.1138  -9.6970  -9.4823  -9.2122  -8.8926  -8.7801
    -8.3927  -8.2995  -8.1608  -8.0048  -7.9479  -7.8605  -7.6572  -7.5906
    -7.4522  -7.4019  -7.3764  -7.2166  -7.1030  -7.0227  -6.9031  -6.8660
    -6.7380  -6.7323  -6.6753  -6.5984  -6.4948  -6.3172  -6.1047  -6.0729
    -5.9988  -5.8093  -5.5752  -5.4431  -5.3187  -5.1637  -5.0996  -4.9855
    -4.9254  -4.8184  -4.6104  -4.4019  -4.2664  -4.1615  -4.0998  -4.0773
    -3.9272  -3.7919  -3.6952  -3.5742

     highest occupied level (ev):    -3.5742

!    total energy              =    -541.53390192 Ry
     estimated scf accuracy    <      22.46804505 Ry

     The total energy is the sum of the following terms:
     one-electron contribution =   -2304.09608375 Ry
     hartree contribution      =    1175.39632829 Ry
     xc contribution           =    -163.15364765 Ry
     ewald contribution        =     750.31950118 Ry

     convergence has been achieved in 100 iterations

     Writing all to output data dir /u/home/n/nbriana/qe-7.3.1/XSpectra/test/results/tmp/aC1_50.save/ :
     XML data file, charge density, pseudopotentials, collected wavefunctions

     General routines

     Parallel routines

   This run was terminated on:  12:26:35  28Mar2025

   JOB DONE.