     Program PWSCF v.7.3.1 starts on 28Mar2025 at 12:26:42

     Waiting for input...
     Reading input from standard input
Warning: card C 0.045097802 0.920322001 0.442894995 ignored
Warning: card C 0.484064996 0.791926026 0.285243988 ignored
Warning: card C 0.433429986 0.901820004 0.488976985 ignored
Warning: card C 0.00205976 0.913910985 0.259974003 ignored
Warning: card C 0.250528008 0.990361989 0.303270012 ignored
Warning: card C 0.215964004 0.914312005 0.503369987 ignored
Warning: card C 0.294669002 0.94818902 0.565223992 ignored
Warning: card C 0.374644011 0.883478999 0.582211971 ignored
Warning: card C 0.395446002 0.86125797 0.676149011 ignored
Warning: card C 0.489690006 0.861786008 0.710505009 ignored
Warning: card C 0.119204 0.945931017 0.505096018 ignored
Warning: card C 0.254902989 0.774085999 0.77422601 ignored
Warning: card C 0.328245997 0.923968971 0.816464007 ignored
Warning: card C 0.232465997 0.781894982 0.944893003 ignored
Warning: card C 0.186598003 0.767570019 0.853555024 ignored
Warning: card C 0.318168014 0.84750402 0.756565988 ignored
Warning: card C 0.578175008 0.147121996 0.178916007 ignored
Warning: card C 0.646130025 0.208759993 0.144240007 ignored
Warning: card C 0.82418102 0.173896998 0.036878198 ignored
Warning: card C 0.850974023 0.086781301 0.058588099 ignored
Warning: card C 0.540054023 0.073491201 0.116706997 ignored
Warning: card C 0.945644021 0.082815498 0.110133998 ignored
Warning: card C 0.594685018 0.0375387 0.050416399 ignored
Warning: card C 0.964192986 0.238738999 0.189780995 ignored
Warning: card C 0.866726995 0.241457999 0.251619995 ignored
Warning: card C 0.800620973 0.192517996 0.314226002 ignored
Warning: card C 0.855081022 0.017464001 0.283434004 ignored
Warning: card C 0.816820025 0.0939781 0.295574993 ignored
Warning: card C 0.523051023 0.169046998 0.264571995 ignored
Warning: card C 0.526058972 0.044137899 0.415612996 ignored
Warning: card C 0.747043014 0.244445994 0.376773 ignored
Warning: card C 0.996897995 0.149890006 0.636961997 ignored
Warning: card C 0.743624985 0.103211999 0.697665989 ignored
Warning: card C 0.936563015 0.00671017 0.549066007 ignored
Warning: card C 0.795215011 0.0611175 0.632028997 ignored
Warning: card C 0.834219992 0.00124918 0.568122029 ignored
Warning: card C 0.685182989 0.163495004 0.764557004 ignored
Warning: card C 0.713015974 0.076749898 0.794164002 ignored
Warning: card C 0.973972023 0.00728109 0.864991009 ignored
Warning: card C 0.864235997 0.266709 0.160017997 ignored
Warning: card C 0.918672025 0.431614995 0.00984944 ignored
Warning: card C 0.811985016 0.272377014 0.066796802 ignored
Warning: card C 0.709370971 0.257010013 0.105085 ignored
Warning: card C 0.636116028 0.36096099 0.455868989 ignored
Warning: card C 0.934673011 0.446792006 0.377216995 ignored
Warning: card C 0.693077028 0.297764003 0.425166011 ignored
Warning: card C 0.967166007 0.413742989 0.299365997 ignored
Warning: card C 0.99347198 0.479232997 0.729098976 ignored
Warning: card C 0.60086 0.441377997 0.484135002 ignored
Warning: card C 0.906141996 0.502560973 0.679727018 ignored
Warning: card C 0.558076978 0.301820993 0.786080003 ignored
Warning: card C 0.647763014 0.351199001 0.771503985 ignored
Warning: card C 0.687867999 0.433189005 0.770370007 ignored
Warning: card C 0.646960974 0.253338009 0.777769029 ignored
Warning: card C 0.626223028 0.61917901 0.129825994 ignored
Warning: card C 0.600565016 0.571862996 0.204139993 ignored
Warning: card C 0.634253025 0.693499029 0.0723226 ignored
Warning: card C 0.991720974 0.509636998 0.00319229 ignored
Warning: card C 0.750558972 0.686540008 0.421319008 ignored
Warning: card C 0.549705982 0.549250007 0.276326001 ignored
[...]
Warning: card C 0.873598993 0.747781992 0.63874501 ignored
Warning: card C 0.795616984 0.939864993 0.830334008 ignored
Warning: card C 0.771358013 0.843550026 0.816676021 ignored
Warning: card C 0.952055991 0.869961023 0.983874977 ignored
Warning: card C 0.596540987 0.857729971 0.873364985 ignored
Warning: card C 0.888186991 0.968383014 0.839559972 ignored
Warning: card C 0.970745981 0.907371998 0.88814503 ignored
Warning: card C 0.560777009 0.84959197 0.777079999 ignored
Warning: card C 0.695743978 0.804426014 0.858509004 ignored
Warning: card C 0.627292991 0.955744028 0.899850011 ignored
Warning: card C 0.554256976 0.799876988 0.954060018 ignored
Warning: card C 0.002570033 0.837651014 0.817942977 ignored
Warning: card C 0.648943007 0.989051998 0.995805025 ignored
Warning: card C 0.704855025 0.995242 0.843277991 ignored
Warning: card C 0.997160017 0.78450799 0.747902989 ignored

     Current dimensions of program PWSCF are:
     Max number of different atomic species (ntypx) = 10
     Max number of k-points (npk) =  40000
     Max angular momentum in pseudopotentials (lmaxx) =  4

     gamma-point specific algorithms are used

     Subspace diagonalization in iterative solution of the eigenvalue problem:
     a serial algorithm will be used

     Using Slab Decomposition

     bravais-lattice index     =            1
     lattice parameter (alat)  =      26.8830  a.u.
     unit-cell volume          =   19428.2717 (a.u.)^3
     number of atoms/cell      =          100
     number of atomic types    =            2
     number of electrons       =       400.00
     number of Kohn-Sham states=          200
     kinetic-energy cutoff     =      20.0000  Ry
     charge density cutoff     =      80.0000  Ry
     scf convergence threshold =      1.0E-06
     mixing beta               =       0.7000
     number of iterations used =            8  plain     mixing
     Exchange-correlation=  SLA  PW   PBX  PBC
                           (   1   4   3   4   0   0   0)

     celldm(1)=  26.883020  celldm(2)=   0.000000  celldm(3)=   0.000000
     celldm(4)=   0.000000  celldm(5)=   0.000000  celldm(6)=   0.000000

     crystal axes: (cart. coord. in units of alat)
               a(1) = (   1.000000   0.000000   0.000000 )
               a(2) = (   0.000000   1.000000   0.000000 )
               a(3) = (   0.000000   0.000000   1.000000 )

     reciprocal axes: (cart. coord. in units 2 pi/alat)
               b(1) = (  1.000000  0.000000  0.000000 )
               b(2) = (  0.000000  1.000000  0.000000 )
               b(3) = (  0.000000  0.000000  1.000000 )

     PseudoPot. # 1 for C  read from file:
     /u/home/n/nbriana/qe-7.3.1/XSpectra/test/pseudo/C_PBE_TM_2pj.UPF
     MD5 check sum: e8858615eb0a4b79f05373b4879fdf67
     Pseudo is Norm-conserving, Zval =  4.0
     Generated by new atomic code, or converted to UPF format
     Using radial grid of 1073 points,  1 beta functions with:
                l(1) =   0

     PseudoPot. # 2 for C  read from file:
     /u/home/n/nbriana/qe-7.3.1/XSpectra/test/pseudo/Ch_PBE_TM_2pj.UPF
     MD5 check sum: ef0cb3dee31bd9e4ba2a832a2c716264
     Pseudo is Norm-conserving, Zval =  5.0
     Generated by new atomic code, or converted to UPF format
     Using radial grid of 1073 points,  1 beta functions with:
                l(1) =   0

     atomic species   valence    mass     pseudopotential
     C                 4.00    12.01100     C ( 1.00)
     C_h               5.00    12.01100     C ( 1.00)

     No symmetry found

   Cartesian axes

     site n.     atom                  positions (alat units)
         1        C_h    tau(   1) = (   0.8671760   0.3615880   0.0210090  )
         2        C      tau(   2) = (   0.1284970   0.1227580   0.0370101  )
         3        C      tau(   3) = (   0.4508770   0.0371453   0.1209620  )
         4        C      tau(   4) = (   0.0975555   0.1747870   0.1118520  )
         5        C      tau(   5) = (   0.0017674   0.1574700   0.1389100  )
         6        C      tau(   6) = (   0.3874260   0.0854215   0.3324200  )
         7        C      tau(   7) = (   0.3689710   0.1839710   0.3111710  )
         8        C      tau(   8) = (   0.4939480   0.0904083   0.3384770  )
         9        C      tau(   9) = (   0.3307420   0.0038386   0.3581570  )
        10        C      tau(  10) = (   0.4735560   0.0020897   0.4829910  )
        11        C      tau(  11) = (   0.4487030   0.2315380   0.2766460  )
        12        C      tau(  12) = (   0.4423150   0.1655240   0.5499850  )
        13        C      tau(  13) = (   0.3262140   0.0430914   0.5735130  )
        14        C      tau(  14) = (   0.4195000   0.0742134   0.5357820  )
        15        C      tau(  15) = (   0.2644930   0.2044660   0.6013540  )
        16        C      tau(  16) = (   0.2604350   0.1055660   0.6160720  )
        17        C      tau(  17) = (   0.1705700   0.0704748   0.6151020  )
        18        C      tau(  18) = (   0.0994030   0.0211593   0.5761100  )
        19        C      tau(  19) = (   0.0197571   0.1705210   0.7319390  )
        20        C      tau(  20) = (   0.0037840   0.0599144   0.5902450  )
        21        C      tau(  21) = (   0.4591360   0.2491690   0.5859160  )
        22        C      tau(  22) = (   0.0214509   0.2457430   0.6632460  )
        23        C      tau(  23) = (   0.1011330   0.0809704   0.9632910  )
        24        C      tau(  24) = (   0.3844250   0.1717230   0.8714540  )
        25        C      tau(  25) = (   0.0375692   0.0804980   0.8848970  )
        26        C      tau(  26) = (   0.3719710   0.0863349   0.8899420  )
        27        C      tau(  27) = (   0.1314830   0.2144900   0.8461840  )
        28        C      tau(  28) = (   0.0547407   0.1542190   0.8224970  )
        29        C      tau(  29) = (   0.3499710   0.9968596   0.8623990  )
        30        C      tau(  30) = (   0.2179220   0.3083220   0.1659300  )
        31        C      tau(  31) = (   0.0516516   0.4979990   0.1769770  )
        32        C      tau(  32) = (   0.3195510   0.4132900   0.0581899  )
        33        C      tau(  33) = (   0.0419628   0.3094710   0.1888950  )
        34        C      tau(  34) = (   0.0161110   0.4064160   0.2184130  )
        35        C      tau(  35) = (   0.2744690   0.3546640   0.1079620  )
        36        C      tau(  36) = (   0.1230070   0.2669800   0.1535640  )
        37        C      tau(  37) = (   0.2859270   0.2462390   0.3335680  )
        38        C      tau(  38) = (   0.2461940   0.3248830   0.2730550  )
        39        C      tau(  39) = (   0.2144040   0.4120960   0.2949760  )
        40        C      tau(  40) = (   0.2539570   0.2386110   0.4204440  )
        41        C      tau(  41) = (   0.1592450   0.4627030   0.6448850  )
        42        C      tau(  42) = (   0.2357910   0.3002150   0.5978550  )
        43        C      tau(  43) = (   0.4591940   0.2781630   0.6680620  )
        44        C      tau(  44) = (   0.2331850   0.3872940   0.6524450  )
        45        C      tau(  45) = (   0.0370320   0.3363680   0.6474110  )
        46        C      tau(  46) = (   0.0685225   0.4244060   0.6675590  )
        47        C      tau(  47) = (   0.2739460   0.3613790   0.7321300  )
        48        C      tau(  48) = (   0.2383640   0.2535970   0.5102720  )
        49        C      tau(  49) = (   0.2895320   0.2996500   0.8038430  )
        50        C      tau(  50) = (   0.4632640   0.2879750   0.7664300  )
        51        C      tau(  51) = (   0.3634070   0.4851100   0.0166600  )
        52        C      tau(  52) = (   0.3845360   0.2561270   0.8229900  )
        53        C      tau(  53) = (   0.2066290   0.2591650   0.8419230  )
        54        C      tau(  54) = (   0.0010577   0.5020440   0.8205660  )
        55        C      tau(  55) = (   0.1147320   0.5493210   0.2394180  )
        56        C      tau(  56) = (   0.3793700   0.6980940   0.2312820  )
        57        C      tau(  57) = (   0.0615108   0.6442040   0.1151800  )
        58        C      tau(  58) = (   0.1171170   0.6442510   0.2092590  )
        59        C      tau(  59) = (   0.0311639   0.7217240   0.0614871  )
        60        C      tau(  60) = (   0.0340276   0.5455200   0.0925096  )
        61        C      tau(  61) = (   0.3751150   0.7459040   0.1431500  )
[...]
        86        C      tau(  86) = (   0.0202744   0.5456570   0.9048910  )
        87        C      tau(  87) = (   0.2107200   0.9045950   0.0887457  )
        88        C      tau(  88) = (   0.2948180   0.9562980   0.0982545  )
        89        C      tau(  89) = (   0.4639310   0.7965530   0.1133710  )
        90        C      tau(  90) = (   0.0447718   0.9433250   0.1781030  )
        91        C      tau(  91) = (   0.1423620   0.9385200   0.1672260  )
        92        C      tau(  92) = (   0.2356060   0.8222370   0.0399855  )
        93        C      tau(  93) = (   0.1942520   0.9732970   0.2395150  )
        94        C      tau(  94) = (   0.3674820   0.0055200   0.1080620  )
        95        C      tau(  95) = (   0.4945790   0.8209590   0.0250994  )
        96        C      tau(  96) = (   0.0551177   0.8649300   0.3453070  )
        97        C      tau(  97) = (   0.1263200   0.7968440   0.3355750  )
        98        C      tau(  98) = (   0.2686280   0.8579610   0.4351780  )
        99        C      tau(  99) = (   0.2225050   0.7932040   0.3766320  )
       100        C      tau( 100) = (   0.3516480   0.9234360   0.4196720  )

     number of k points=     1
                       cart. coord. in units 2pi/alat
        k(    1) = (   0.0000000   0.0000000   0.0000000), wk =   2.0000000

     Initial potential from superposition of free atoms

     starting charge     349.9999, renormalised to     400.0000

     negative rho (up, down):  1.391E-01 0.000E+00
     Starting wfcs are  800 randomized atomic wfcs

     Self-consistent Calculation

     iteration #  1     ecut=    20.00 Ry     beta= 0.70
     Davidson diagonalization with overlap
     ethr =  1.00E-02,  avg # of iterations =  2.0

     negative rho (up, down):  1.251E-02 0.000E+00

     total energy              =   -1099.26405914 Ry
     estimated scf accuracy    <      21.58597613 Ry

[...]

     iteration # 14     ecut=    20.00 Ry     beta= 0.70
     Davidson diagonalization with overlap
     c_bands:  1 eigenvalues not converged
     ethr =  6.57E-04,  avg # of iterations = 20.0

[...]

     iteration # 49     ecut=    20.00 Ry     beta= 0.70
     Davidson diagonalization with overlap
     c_bands:  1 eigenvalues not converged
     ethr =  6.57E-04,  avg # of iterations = 20.0

[...]

     negative rho (up, down):  3.931E-03 0.000E+00

[...]

     total energy              =   -1111.47332637 Ry
     estimated scf accuracy    <       5.08400805 Ry

     iteration #100     ecut=    20.00 Ry     beta= 0.70
     Davidson diagonalization with overlap
     ethr =  2.94E-04,  avg # of iterations = 13.0

     End of self-consistent calculation

          k = 0.0000 0.0000 0.0000 ( 14712 PWs)   bands (ev):

   -23.0149 -22.5947 -21.6177 -21.5372 -21.3702 -21.1213 -21.0235 -20.8193
   -20.6869 -20.4720 -20.2563 -20.0470 -19.9669 -19.6347 -19.2931 -19.1682
   -18.9478 -18.8913 -18.8527 -18.6903 -18.5632 -18.3991 -18.2032 -18.0743
   -17.9210 -17.7384 -17.6260 -17.5503 -17.3278 -17.2511 -17.1866 -17.0646
   -17.0026 -16.7984 -16.5743 -16.5315 -16.4087 -16.3444 -16.0824 -16.0242
   -15.9676 -15.7814 -15.6170 -15.4733 -15.3649 -15.2511 -15.1676 -14.9024
   -14.6345 -14.5011 -14.4134 -14.3182 -14.2547 -14.1570 -14.0576 -13.7754
   -13.6201 -13.5170 -13.4301 -13.2800 -13.1258 -13.0210 -12.6873 -12.6197
   -12.5754 -12.5209 -12.3340 -12.2596 -12.2127 -12.1451 -11.9449 -11.8808
   -11.7393 -11.6341 -11.4066 -11.3710 -11.3185 -11.1487 -11.0974 -11.0480
   -10.9808 -10.8845 -10.8237 -10.5544 -10.4766 -10.4116 -10.2400 -10.1277
    -9.9450  -9.8094  -9.7691  -9.7488  -9.6577  -9.5342  -9.4564  -9.3858
    -9.2771  -9.1568  -8.9796  -8.8626  -8.8034  -8.7932  -8.6710  -8.6615
    -8.6387  -8.5661  -8.4721  -8.4424  -8.3041  -8.2719  -8.1970  -8.0241
    -7.9269  -7.6097  -7.5499  -7.4878  -7.4375  -7.2929  -7.2173  -7.1060
    -7.0848  -6.9885  -6.9561  -6.8756  -6.8207  -6.7493  -6.7416  -6.5744
    -6.5388  -6.4601  -6.4375  -6.2990  -6.1870  -6.1079  -6.0434  -5.9502
    -5.8854  -5.7899  -5.7526  -5.6683  -5.6279  -5.5096  -5.4922  -5.4019
    -5.2579  -5.2086  -5.2038  -5.1583  -5.0817  -4.9933  -4.9234  -4.8663
    -4.8418  -4.7686  -4.6968  -4.6008  -4.5869  -4.5654  -4.5019  -4.4529
    -4.3770  -4.2857  -4.2552  -4.1580  -4.0807  -3.9948  -3.9160  -3.8970
    -3.8370  -3.7876  -3.7792  -3.7535  -3.6820  -3.5751  -3.5047  -3.4567
    -3.3471  -3.3056  -3.2297  -3.2070  -3.1795  -3.1729  -3.0110  -3.0061
    -2.9019  -2.8646  -2.7357  -2.6514  -2.5719  -2.5474  -2.5126  -2.4459
    -2.3844  -2.2687  -2.1918  -2.1434  -2.1018  -2.0675  -1.9926  -1.9761

     highest occupied level (ev):    -1.9761

!    total energy              =   -1093.61696961 Ry
     estimated scf accuracy    <      21.59447285 Ry

     The total energy is the sum of the following terms:
     one-electron contribution =   -3927.43359130 Ry
     hartree contribution      =    2071.71186009 Ry
     xc contribution           =    -331.54215355 Ry
     ewald contribution        =    1093.64691516 Ry

     convergence has been achieved in 100 iterations

     Writing all to output data dir /u/home/n/nbriana/qe-7.3.1/XSpectra/test/results/tmp/aC1_100.save/ :
     XML data file, charge density, pseudopotentials, collected wavefunctions

     General routines

     Parallel routines

   This run was terminated on:  12:41:12  28Mar2025

   JOB DONE.