     Program PWSCF v.7.3.1 starts on 28Mar2025 at 15:52:36

     Waiting for input...
     Reading input from standard input
Warning: card C 0.459136009 0.249169007 0.585915983 ignored
Warning: card C 0.0214509 0.245743006 0.663245976 ignored
Warning: card C 0.101132996 0.080970399 0.963290989 ignored
Warning: card C 0.384425014 0.171722993 0.871454 ignored
Warning: card C 0.037569199 0.080498002 0.884896994 ignored
Warning: card C 0.371971011 0.086334899 0.88994199 ignored
Warning: card C 0.131483003 0.214489996 0.846184015 ignored
Warning: card C 0.054740701 0.154219002 0.82249701 ignored
Warning: card C 0.349970996 0.99685961 0.862398982 ignored
Warning: card C 0.217922002 0.308322012 0.165930003 ignored
Warning: card C 0.051651601 0.497999012 0.176976994 ignored
Warning: card C 0.319550991 0.413289994 0.058189899 ignored
Warning: card C 0.041962799 0.309471011 0.188895002 ignored
Warning: card C 0.016111 0.406415999 0.218412995 ignored
Warning: card C 0.274468988 0.354663998 0.107961997 ignored
Warning: card C 0.123006999 0.266979992 0.153564006 ignored
Warning: card C 0.285926998 0.246239007 0.333568007 ignored
Warning: card C 0.246194005 0.324883014 0.273054987 ignored
Warning: card C 0.214404002 0.412095994 0.294975996 ignored
Warning: card C 0.253957003 0.238610998 0.420444012 ignored
Warning: card C 0.159244999 0.46270299 0.644885004 ignored
Warning: card C 0.235790998 0.300215006 0.597854972 ignored
Warning: card C 0.459194005 0.278162986 0.668061972 ignored
Warning: card C 0.233184993 0.387293994 0.652445018 ignored
Warning: card C 0.037032001 0.336367995 0.647410989 ignored
Warning: card C 0.068522498 0.424405992 0.667559028 ignored
Warning: card C 0.273945987 0.361378998 0.732129991 ignored
Warning: card C 0.238363996 0.253596991 0.510272026 ignored
Warning: card C 0.289532006 0.299650013 0.803843021 ignored
Warning: card C 0.463263988 0.287975013 0.76643002 ignored
Warning: card C 0.363406986 0.485110015 0.016659975 ignored
Warning: card C 0.384535998 0.256127 0.82299 ignored
Warning: card C 0.206628993 0.259164989 0.841922998 ignored
Warning: card C 0.0010577 0.502044022 0.820565999 ignored
Warning: card C 0.114731997 0.549320996 0.239418 ignored
Warning: card C 0.379370004 0.69809401 0.231281996 ignored
Warning: card C 0.061510801 0.644204021 0.115180001 ignored
Warning: card C 0.117117003 0.644250989 0.209259003 ignored
Warning: card C 0.031163899 0.721723974 0.061487101 ignored
Warning: card C 0.034027599 0.545520008 0.092509598 ignored
Warning: card C 0.375115007 0.745904028 0.143150002 ignored
Warning: card C 0.306937009 0.748938024 0.065230899 ignored
Warning: card C 0.382479995 0.565783978 0.463319987 ignored
Warning: card C 0.327181011 0.659067988 0.306991011 ignored
Warning: card C 0.149268001 0.710047007 0.280229986 ignored
Warning: card C 0.38885501 0.596018016 0.367018014 ignored
Warning: card C 0.473363012 0.600713015 0.317158014 ignored
Warning: card C 0.239769995 0.708405018 0.327311993 ignored
Warning: card C 0.470393002 0.69126302 0.271380007 ignored
Warning: card C 0.173464999 0.491017014 0.302908987 ignored
Warning: card C 0.093369901 0.61017698 0.605645001 ignored
Warning: card C 0.349604011 0.571766973 0.648326993 ignored
Warning: card C 0.366609007 0.558117986 0.552707016 ignored
Warning: card C 0.278577 0.678842008 0.744659007 ignored
Warning: card C 0.173663005 0.560057998 0.644738972 ignored
Warning: card C 0.258978009 0.612369001 0.676711977 ignored
Warning: card C 0.020907801 0.669104993 0.612263978 ignored
Warning: card C 0.396710008 0.566568017 0.737796009 ignored
Warning: card C 0.0269337 0.614115 0.526638985 ignored
Warning: card C 0.0633711 0.638559997 0.894155025 ignored
[...]
Warning: card C 0.873598993 0.747781992 0.63874501 ignored
Warning: card C 0.795616984 0.939864993 0.830334008 ignored
Warning: card C 0.771358013 0.843550026 0.816676021 ignored
Warning: card C 0.952055991 0.869961023 0.983874977 ignored
Warning: card C 0.596540987 0.857729971 0.873364985 ignored
Warning: card C 0.888186991 0.968383014 0.839559972 ignored
Warning: card C 0.970745981 0.907371998 0.88814503 ignored
Warning: card C 0.560777009 0.84959197 0.777079999 ignored
Warning: card C 0.695743978 0.804426014 0.858509004 ignored
Warning: card C 0.627292991 0.955744028 0.899850011 ignored
Warning: card C 0.554256976 0.799876988 0.954060018 ignored
Warning: card C 0.002570033 0.837651014 0.817942977 ignored
Warning: card C 0.648943007 0.989051998 0.995805025 ignored
Warning: card C 0.704855025 0.995242 0.843277991 ignored
Warning: card C 0.997160017 0.78450799 0.747902989 ignored

     Current dimensions of program PWSCF are:
     Max number of different atomic species (ntypx) = 10
     Max number of k-points (npk) =  40000
     Max angular momentum in pseudopotentials (lmaxx) =  4

     gamma-point specific algorithms are used

     Subspace diagonalization in iterative solution of the eigenvalue problem:
     a serial algorithm will be used

     Using Slab Decomposition

     bravais-lattice index     =            1
     lattice parameter (alat)  =      26.8830  a.u.
     unit-cell volume          =   19428.2717 (a.u.)^3
     number of atoms/cell      =           20
     number of atomic types    =            2
     number of electrons       =        80.00
     number of Kohn-Sham states=           40
     kinetic-energy cutoff     =      20.0000  Ry
     charge density cutoff     =      80.0000  Ry
     scf convergence threshold =      1.0E-06
     mixing beta               =       0.7000
     number of iterations used =            8  plain     mixing
     Exchange-correlation=  SLA  PW   PBX  PBC
                           (   1   4   3   4   0   0   0)

     celldm(1)=  26.883020  celldm(2)=   0.000000  celldm(3)=   0.000000
     celldm(4)=   0.000000  celldm(5)=   0.000000  celldm(6)=   0.000000

     crystal axes: (cart. coord. in units of alat)
               a(1) = (   1.000000   0.000000   0.000000 )
               a(2) = (   0.000000   1.000000   0.000000 )
               a(3) = (   0.000000   0.000000   1.000000 )

     reciprocal axes: (cart. coord. in units 2 pi/alat)
               b(1) = (  1.000000  0.000000  0.000000 )
               b(2) = (  0.000000  1.000000  0.000000 )
               b(3) = (  0.000000  0.000000  1.000000 )

     PseudoPot. # 1 for C  read from file:
     /u/home/n/nbriana/qe-7.3.1/XSpectra/test/pseudo/C_PBE_TM_2pj.UPF
     MD5 check sum: e8858615eb0a4b79f05373b4879fdf67
     Pseudo is Norm-conserving, Zval =  4.0
     Generated by new atomic code, or converted to UPF format
     Using radial grid of 1073 points,  1 beta functions with:
                l(1) =   0

     PseudoPot. # 2 for C  read from file:
     /u/home/n/nbriana/qe-7.3.1/XSpectra/test/pseudo/Ch_PBE_TM_2pj.UPF
     MD5 check sum: ef0cb3dee31bd9e4ba2a832a2c716264
     Pseudo is Norm-conserving, Zval =  5.0
     Generated by new atomic code, or converted to UPF format
     Using radial grid of 1073 points,  1 beta functions with:
                l(1) =   0

     atomic species   valence    mass     pseudopotential
     C                 4.00    12.01100     C ( 1.00)
     C_h               5.00    12.01100     C ( 1.00)

     No symmetry found

   Cartesian axes

     site n.     atom                  positions (alat units)
         1        C_h    tau(   1) = (   0.8671760   0.3615880   0.0210090  )
         2        C      tau(   2) = (   0.1284970   0.1227580   0.0370101  )
         3        C      tau(   3) = (   0.4508770   0.0371453   0.1209620  )
         4        C      tau(   4) = (   0.0975555   0.1747870   0.1118520  )
         5        C      tau(   5) = (   0.0017674   0.1574700   0.1389100  )
         6        C      tau(   6) = (   0.3874260   0.0854215   0.3324200  )
         7        C      tau(   7) = (   0.3689710   0.1839710   0.3111710  )
         8        C      tau(   8) = (   0.4939480   0.0904083   0.3384770  )
         9        C      tau(   9) = (   0.3307420   0.0038386   0.3581570  )
        10        C      tau(  10) = (   0.4735560   0.0020897   0.4829910  )
        11        C      tau(  11) = (   0.4487030   0.2315380   0.2766460  )
        12        C      tau(  12) = (   0.4423150   0.1655240   0.5499850  )
        13        C      tau(  13) = (   0.3262140   0.0430914   0.5735130  )
        14        C      tau(  14) = (   0.4195000   0.0742134   0.5357820  )
        15        C      tau(  15) = (   0.2644930   0.2044660   0.6013540  )
        16        C      tau(  16) = (   0.2604350   0.1055660   0.6160720  )
        17        C      tau(  17) = (   0.1705700   0.0704748   0.6151020  )
        18        C      tau(  18) = (   0.0994030   0.0211593   0.5761100  )
        19        C      tau(  19) = (   0.0197571   0.1705210   0.7319390  )
        20        C      tau(  20) = (   0.0037840   0.0599144   0.5902450  )

     number of k points=     1
                       cart. coord. in units 2pi/alat
        k(    1) = (   0.0000000   0.0000000   0.0000000), wk =   2.0000000

     Initial potential from superposition of free atoms

     starting charge      70.0000, renormalised to      80.0000

     negative rho (up, down):  1.999E-01 0.000E+00
     Starting wfcs are  160 randomized atomic wfcs

     Self-consistent Calculation

     iteration #  1     ecut=    20.00 Ry     beta= 0.70
     Davidson diagonalization with overlap
     ethr =  1.00E-02,  avg # of iterations =  2.0

     negative rho (up, down):  3.532E-02 0.000E+00

     total energy              =    -216.67265360 Ry
     estimated scf accuracy    <      15.48302523 Ry

[...]

     negative rho (up, down):  2.496E-03 0.000E+00

     total energy              =    -225.98454903 Ry
     estimated scf accuracy    <      10.97079316 Ry

     iteration #100     ecut=    20.00 Ry     beta= 0.70
     Davidson diagonalization with overlap
     ethr =  6.21E-03,  avg # of iterations =  6.0

     End of self-consistent calculation

          k = 0.0000 0.0000 0.0000 ( 14712 PWs)   bands (ev):

   -23.7700 -23.0837 -22.3312 -21.0781 -20.5714 -19.3824 -17.9733 -17.8164
   -17.3756 -17.1502 -16.9869 -16.3096 -15.2951 -14.8850 -14.6983 -13.5015
   -13.3599 -11.1451 -10.4094 -10.1877  -9.9293  -9.8003  -9.6181  -9.4034
    -9.2088  -9.1361  -8.7516  -8.4600  -8.4457  -8.4232  -8.1199  -7.8063
    -7.7377  -7.3933  -7.0327  -6.7164  -6.3054  -6.2998  -6.2898  -6.1666

     highest occupied level (ev):    -6.1666

!    total energy              =    -219.68435166 Ry
     estimated scf accuracy    <       7.10051473 Ry

     The total energy is the sum of the following terms:
     one-electron contribution =    -700.35866368 Ry
     hartree contribution      =     357.85594980 Ry
     xc contribution           =     -63.97169332 Ry
     ewald contribution        =     186.79005555 Ry

     convergence has been achieved in 100 iterations

     Writing all to output data dir /u/home/n/nbriana/qe-7.3.1/XSpectra/test/results/tmp/aC1_20.save/ :
     XML data file, charge density, pseudopotentials, collected wavefunctions

     General routines

     Parallel routines

   This run was terminated on:  15:55: 4  28Mar2025

   JOB DONE.